47900.4
106 2 4 1 0 3 6 9 5 8 10 7 13 14 16 11 12 15 18 21 17 20 22 19 25 26 28 23 24 27 30 33 29 32 34 31 37 38 40 35 36 39 46 43 42 45 41 49 50 52 47 48 51 44 97 94 96 93 92 95 91 88 89 87 98 90 86 84 99 83 82 85 80 77 78 79 81 100 76 101 74 72 75 73 70 67 68 69 71 102 66 64 103 63 65 62 60 57 58 59 104 61 56 53 55 54 105 
